 ! --------------------------------------------------- CP Optimizer 22.1.1.0 --
 ! Maximization problem - 55 variables, 252 constraints
 ! Initial process time : 0.02s (0.02s extraction + 0.00s propagation)
 !  . Log search space  : 315.5 (before), 315.5 (after)
 !  . Memory usage      : 480.1 kB (before), 480.1 kB (after)
 ! Using parallel search with 8 workers.
 ! ----------------------------------------------------------------------------
 !          Best Branches  Non-fixed    W       Branch decision
                        0         55                 -
 + New bound is 53
                        0         55    1   F        -
 + New bound is 26
                      216         52    1   F    30 != labels(43)
 + New bound is 25
 *             1      269  0.04s        1      (gap is 2400%)
 *             2      586  0.04s        1      (gap is 1150%)
 *             3      813  0.04s        1      (gap is 733.3%)
 *             4      863  0.04s        1      (gap is 525.0%)
 *             5      984  0.04s        1      (gap is 400.0%)
               5     1000          2    1   F    30  = labels(35)
 *             6      986  0.04s        2      (gap is 316.7%)
               6     1000          2    2        29 != labels(10)
 *             7      557  0.04s        3      (gap is 257.1%)
 *             8      649  0.04s        3      (gap is 212.5%)
               8     1000          2    3   F    53  = labels(25)
               8     1000          2    4        40  = labels(44)
               8     1000          2    5   F    37  = labels(38)
               8     1000          2    6   F    54  = labels(43)
               8     1000          2    7        41 != labels(13)
               8     1000          2    8   F     7 != labels(38)
 *             9     1271  0.06s        1      (gap is 177.8%)
 ! Time = 0.06s, Average fail depth = 30, Memory usage = 11.7 MB
 ! Current bound is 25 (gap is 177.8%)
 !          Best Branches  Non-fixed    W       Branch decision
               9     2000          2    1   F    44  = labels(16)
               9     2000          2    2        41  = labels(34)
               9     2000          2    3        46  = labels(45)
               9     2000          4    4   F    45  = labels(38)
 *            10     1554  0.06s        5      (gap is 150.0%)
              10     2000          3    5   F     7  = labels(44)
              10     2000          2    6   F    26  = labels(26)
              10     2000          3    7   F    37 != labels(6)
              10     2000          4    8        33  = labels(21)
              10     3000         10    3        15 != labels(32)
              10     3000         20    5        39 != labels(53)
              10     3000          3    6        24 != labels(9)
              10     3000         35    8            -
              10     3000          3    1   F    26  = labels(48)
              10     3000          3    2   F    34  = labels(15)
              10     3000          2    4        27 != labels(46)
              10     3000          3    7   F    31  = labels(13)
              10     4000         33    8   F    12  = labels(32)
              10     4000         13    2   F    51  = labels(28)
              10     4000         34    3   F    26  = labels(17)
 ! Time = 0.09s, Average fail depth = 38, Memory usage = 12.1 MB
 ! Current bound is 25 (gap is 150.0%)
 !          Best Branches  Non-fixed    W       Branch decision
              10     4000         23    5   F    41  = labels(32)
              10     4000         24    6         8 != labels(13)
              10     4000         26    1   F    39 != labels(44)
              10     4000          6    4   F    24  = labels(47)
              10     4000          2    7        17  = labels(3)
              10     5000         23    8        35 != labels(37)
              10     5000         24    3        22 != labels(17)
              10     5000         27    5         3 != labels(7)
              10     5000         29    6        18 != labels(44)
              10     5000         28    1        24 != labels(44)
              10     5000         13    2        32  = labels(4)
              10     5000         26    4        12 != labels(1)
              10     5000         22    7   F    32  = labels(45)
              10     6000         11    8   F     9  = labels(3)
              10     6000         11    3        15  = labels(10)
              10     6000         22    5   F    18  = labels(52)
              10     6000         44    6            -
              10     5691         28    1   F     5 != labels(32)
 + New bound is 17 (gap is 70.00%)
              10     6000         28    1   F    25  = labels(1)
              10     6000         29    4        16 != labels(44)
 ! Time = 0.09s, Average fail depth = 35, Memory usage = 12.8 MB
 ! Current bound is 17 (gap is 70.00%)
 !          Best Branches  Non-fixed    W       Branch decision
              10     6000         22    7   F    10  = labels(39)
              10     7000         25    8   F    15  = labels(44)
              10     7000         29    3            -
              10     7000         25    5   F    28  = labels(7)
              10     7000         31    6        28 != labels(44)
              10     7000         50    1        14 != labels(1)
              10     6000         24    2   F    36  = labels(32)
              10     8000         42    8        23 != labels(44)
              10     8000         15    5   F    14  = labels(32)
              10     8000         25    6        39 != labels(25)
              10     8000         38    1        45 != labels(44)
              10     7000         50    4        43 != labels(3)
              10     6953         26    7   F    49 != labels(1)
 + New bound is 13 (gap is 30.00%)
              10     7000         26    7        54 != labels(1)
              10     9000         27    8        51  = labels(21)
              10     8000         26    3        47 != labels(3)
              10     8000         36    4   F    11  = labels(22)
              10    10000         28    8        27 != labels(28)
              10     9000         38    1        14 != labels(1)
              10     9000         14    3        32 != labels(13)
 ! Time = 0.13s, Average fail depth = 33, Memory usage = 13.3 MB
 ! Current bound is 13 (gap is 30.00%)
 !          Best Branches  Non-fixed    W       Branch decision
              10     9000         24    5   F    31  = labels(13)
              10     9000         26    6   F    20  = labels(37)
              10     7000         52    2   F    15  = labels(32)
              10    11000         24    8            -
              10    10000         49    1        40 != labels(1)
              10    10000         15    3   F    32  = labels(3)
              10     9000         25    4        29 != labels(24)
              10    10000         27    5   F    15  = labels(32)
              10    10000         32    6   F    14  = labels(32)
              10     7343         52    2   F    19 != labels(32)
 + New bound is 12 (gap is 20.00%)
              10     8000         52    7   F    18  = labels(32)
              10    12000         27    8        46  = labels(21)
              10    11000         51    1        19 != labels(44)
              10    11000         46    3   F    30  = labels(44)
              10    10000         26    4   F     5  = labels(3)
              10    11000         24    5   F    27  = labels(3)
              10    11000         40    6        53 != labels(21)
              10     8000         50    2        16 != labels(3)
              10    13000         26    8         8  = labels(29)
              10    12000         33    3        27 != labels(3)
 ! Time = 0.15s, Average fail depth = 32, Memory usage = 13.4 MB
 ! Current bound is 12 (gap is 20.00%)
 !          Best Branches  Non-fixed    W       Branch decision
              10    11000         43    4        40 != labels(44)
              10    12000         37    5   F    25 != labels(32)
              10    12000         27    6        23 != labels(36)
              10    12000         51    1        18 != labels(3)
              10    13000         26    3            -
              10    12000         51    4   F     6  = labels(1)
              10    13000         24    5        29 != labels(4)
              10    13000         25    6   F    18  = labels(32)
              10     9000         51    2        39  = labels(3)
              10     9000         52    7        28 != labels(32)
              10    14000         26    8   F     2  = labels(47)
              10    13000         52    1   F    17  = labels(3)
              10    14000         26    3   F    14  = labels(32)
              10    13000         52    4   F     7  = labels(44)
              10    14000         25    5   F    30 != labels(25)
              10    14000         24    6        20 != labels(6)
              10    15000         39    8        28 != labels(32)
              10    14000         52    1   F    15  = labels(1)
              10    15000         17    3        13 != labels(15)
              10    15000         23    5   F    21  = labels(44)
 ! Time = 0.18s, Average fail depth = 31, Memory usage = 13.1 MB
 ! Current bound is 12 (gap is 20.00%)
 !          Best Branches  Non-fixed    W       Branch decision
              10    15000         27    6   F    34 != labels(17)
              10    14000         52    4        42 != labels(3)
              10    10000         52    7        53  = labels(44)
              10    10143         52    7   F    16 != labels(1)
 + New bound is 10 (gap is 0.00%)
 ! ----------------------------------------------------------------------------
 ! Search completed, 10 solutions found.
 ! Best objective         : 10 (optimal - effective tol. is 0)
 ! Best bound             : 10
 ! ----------------------------------------------------------------------------
 ! Number of branches     : 111191
 ! Number of fails        : 51113
 ! Total memory usage     : 13.8 MB (13.4 MB CP Optimizer + 0.4 MB Concert)
 ! Time spent in solve    : 0.18s (0.17s engine + 0.02s extraction)
 ! Search speed (br. / s) : 654064.7
 ! ----------------------------------------------------------------------------
